submitit INFO (2023-04-30 19:21:33,004) - Starting with JobEnvironment(job_id=27531, hostname=cpunode2, local_rank=0(5), node=0(1), global_rank=0(5))
submitit INFO (2023-04-30 19:21:33,004) - Loading pickle: /h/30/pashootan/Matrix-Mult-CP/src/../logs/2x2x2_6_Apr30_19:21:31/27531_submitted.pkl
 ! --------------------------------------------------- CP Optimizer 22.1.1.0 --
 ! Satisfiability problem - 72 variables, 237 constraints
 ! TimeLimit            = 7200
 ! Workers              = 8
 ! LogPeriod            = 10000000
 ! RandomSeed           = 3473
 ! Initial process time : 0.02s (0.02s extraction + 0.00s propagation)
 !  . Log search space  : 107.1 (before), 107.1 (after)
 !  . Memory usage      : 575.6 kB (before), 575.6 kB (after)
 ! Using parallel search with 8 workers.
 ! ----------------------------------------------------------------------------
 !               Branches  Non-fixed    W       Branch decision
                   10000k          6    6        -1  = V0_0
                   10000k          6    4   F     1 != U4_2
                   10000k          6    1         1 != V0_3
                   10000k          6    5   F     1  = U4_2
                   10000k          6    2        -1  = U2_2
                   10000k          6    8            -
                   10000k          7    3   F    -1 != V2_1
                   10000k          7    7        -1 != W3_3
                   20000k          6    6         1  = V3_1
                   20000k          6    4        -1  = V3_3
                   20000k          5    1         1 != V1_1
                   20000k          6    5         1  = U2_2
                   20000k          6    2   F     1  = V1_1
                   20000k          7    8   F     0  = U2_1
                   20000k          9    3        -1 != W5_3
                   20000k          7    7        -1  = V0_0
                   30000k          6    6   F    -1  = V2_3
                   30000k          6    4         0 != U1_1
                   30000k          5    1   F    -1  = W4_1
                   30000k          6    5         0  = V3_1
 ! Time = 332.43s, Average fail depth = 18, Memory usage = 146.5 MB
 !               Branches  Non-fixed    W       Branch decision
                   30000k          6    2         1 != V1_3
                   30000k          8    3   F     0 != V4_0
                   30000k          6    8         0  = U2_3
                   30000k          7    7   F    -1  = W0_3
 ! ----------------------------------------------------------------------------
 ! Search completed, model has no solution.
 ! ----------------------------------------------------------------------------
 ! Number of branches     : 296844353
 ! Number of fails        : 146494208
 ! Total memory usage     : 191.2 MB (191.1 MB CP Optimizer + 0.0 MB Concert)
 ! Time spent in solve    : 414.08s (414.06s engine + 0.02s extraction)
 ! Search speed (br. / s) : 716911.4
 ! ----------------------------------------------------------------------------
Infeasible
Saving stats to: /h/30/pashootan/Matrix-Mult-CP/logs/2x2x2_6_Apr30_19:21:31/27531_0_stats.csv
submitit INFO (2023-04-30 19:28:27,639) - Job completed successfully
